8 8
  0	61	1	88	2	61	3	65	4	3	5	85	6	72	7	90	
  0	2	1	88	2	8	3	74	4	51	5	8	6	44	7	76	
  0	97	1	4	2	34	3	22	4	57	5	46	6	68	7	58	
  0	56	1	75	2	4	3	75	4	50	5	56	6	23	7	14	
  0	79	1	4	2	27	3	72	4	35	5	2	6	30	7	38	
  0	79	1	96	2	92	3	64	4	3	5	52	6	91	7	4	
  0	25	1	68	2	39	3	45	4	83	5	93	6	6	7	89	
  0	76	1	23	2	44	3	35	4	80	5	76	6	3	7	5	
